Minimize
 obj: 0 X_0_1
Subject To
 out_0:
  + 1 X_0_1 + 1 X_0_2 + 1 X_0_3 + 1 X_0_4 + 1 X_0_5 + 1 X_0_6 + 1 X_0_7 + 1 X_0_8
  + 1 X_0_9
  = 1
 in_0:
  + 1 X_1_0 + 1 X_2_0 + 1 X_3_0 + 1 X_4_0 + 1 X_5_0 + 1 X_6_0 + 1 X_7_0 + 1 X_8_0
  + 1 X_9_0
  = 1
 out_1:
  + 1 X_1_0 + 1 X_1_2 + 1 X_1_3 + 1 X_1_4 + 1 X_1_5 + 1 X_1_6 + 1 X_1_7 + 1 X_1_8
  + 1 X_1_9
  = 1
 in_1:
  + 1 X_0_1 + 1 X_2_1 + 1 X_3_1 + 1 X_4_1 + 1 X_5_1 + 1 X_6_1 + 1 X_7_1 + 1 X_8_1
  + 1 X_9_1
  = 1
 out_2:
  + 1 X_2_0 + 1 X_2_1 + 1 X_2_3 + 1 X_2_4 + 1 X_2_5 + 1 X_2_6 + 1 X_2_7 + 1 X_2_8
  + 1 X_2_9
  = 1
 in_2:
  + 1 X_0_2 + 1 X_1_2 + 1 X_3_2 + 1 X_4_2 + 1 X_5_2 + 1 X_6_2 + 1 X_7_2 + 1 X_8_2
  + 1 X_9_2
  = 1
 out_3:
  + 1 X_3_0 + 1 X_3_1 + 1 X_3_2 + 1 X_3_4 + 1 X_3_5 + 1 X_3_6 + 1 X_3_7 + 1 X_3_8
  + 1 X_3_9
  = 1
 in_3:
  + 1 X_0_3 + 1 X_1_3 + 1 X_2_3 + 1 X_4_3 + 1 X_5_3 + 1 X_6_3 + 1 X_7_3 + 1 X_8_3
  + 1 X_9_3
  = 1
 out_4:
  + 1 X_4_0 + 1 X_4_1 + 1 X_4_2 + 1 X_4_3 + 1 X_4_5 + 1 X_4_6 + 1 X_4_7 + 1 X_4_8
  + 1 X_4_9
  = 1
 in_4:
  + 1 X_0_4 + 1 X_1_4 + 1 X_2_4 + 1 X_3_4 + 1 X_5_4 + 1 X_6_4 + 1 X_7_4 + 1 X_8_4
  + 1 X_9_4
  = 1
 out_5:
  + 1 X_5_0 + 1 X_5_1 + 1 X_5_2 + 1 X_5_3 + 1 X_5_4 + 1 X_5_6 + 1 X_5_7 + 1 X_5_8
  + 1 X_5_9
  = 1
 in_5:
  + 1 X_0_5 + 1 X_1_5 + 1 X_2_5 + 1 X_3_5 + 1 X_4_5 + 1 X_6_5 + 1 X_7_5 + 1 X_8_5
  + 1 X_9_5
  = 1
 out_6:
  + 1 X_6_0 + 1 X_6_1 + 1 X_6_2 + 1 X_6_3 + 1 X_6_4 + 1 X_6_5 + 1 X_6_7 + 1 X_6_8
  + 1 X_6_9
  = 1
 in_6:
  + 1 X_0_6 + 1 X_1_6 + 1 X_2_6 + 1 X_3_6 + 1 X_4_6 + 1 X_5_6 + 1 X_7_6 + 1 X_8_6
  + 1 X_9_6
  = 1
 out_7:
  + 1 X_7_0 + 1 X_7_1 + 1 X_7_2 + 1 X_7_3 + 1 X_7_4 + 1 X_7_5 + 1 X_7_6 + 1 X_7_8
  + 1 X_7_9
  = 1
 in_7:
  + 1 X_0_7 + 1 X_1_7 + 1 X_2_7 + 1 X_3_7 + 1 X_4_7 + 1 X_5_7 + 1 X_6_7 + 1 X_8_7
  + 1 X_9_7
  = 1
 out_8:
  + 1 X_8_0 + 1 X_8_1 + 1 X_8_2 + 1 X_8_3 + 1 X_8_4 + 1 X_8_5 + 1 X_8_6 + 1 X_8_7
  + 1 X_8_9
  = 1
 in_8:
  + 1 X_0_8 + 1 X_1_8 + 1 X_2_8 + 1 X_3_8 + 1 X_4_8 + 1 X_5_8 + 1 X_6_8 + 1 X_7_8
  + 1 X_9_8
  = 1
 out_9:
  + 1 X_9_0 + 1 X_9_1 + 1 X_9_2 + 1 X_9_3 + 1 X_9_4 + 1 X_9_5 + 1 X_9_6 + 1 X_9_7
  + 1 X_9_8
  = 1
 in_9:
  + 1 X_0_9 + 1 X_1_9 + 1 X_2_9 + 1 X_3_9 + 1 X_4_9 + 1 X_5_9 + 1 X_6_9 + 1 X_7_9
  + 1 X_8_9
  = 1
 mtz_1_2:
  + 1 U1 - 1 U2 + 9 X_1_2
  <= 8
 mtz_1_3:
  + 1 U1 - 1 U3 + 9 X_1_3
  <= 8
 mtz_1_4:
  + 1 U1 - 1 U4 + 9 X_1_4
  <= 8
 mtz_1_5:
  + 1 U1 - 1 U5 + 9 X_1_5
  <= 8
 mtz_1_6:
  + 1 U1 - 1 U6 + 9 X_1_6
  <= 8
 mtz_1_7:
  + 1 U1 - 1 U7 + 9 X_1_7
  <= 8
 mtz_1_8:
  + 1 U1 - 1 U8 + 9 X_1_8
  <= 8
 mtz_1_9:
  + 1 U1 - 1 U9 + 9 X_1_9
  <= 8
 mtz_2_1:
  + 1 U2 - 1 U1 + 9 X_2_1
  <= 8
 mtz_2_3:
  + 1 U2 - 1 U3 + 9 X_2_3
  <= 8
 mtz_2_4:
  + 1 U2 - 1 U4 + 9 X_2_4
  <= 8
 mtz_2_5:
  + 1 U2 - 1 U5 + 9 X_2_5
  <= 8
 mtz_2_6:
  + 1 U2 - 1 U6 + 9 X_2_6
  <= 8
 mtz_2_7:
  + 1 U2 - 1 U7 + 9 X_2_7
  <= 8
 mtz_2_8:
  + 1 U2 - 1 U8 + 9 X_2_8
  <= 8
 mtz_2_9:
  + 1 U2 - 1 U9 + 9 X_2_9
  <= 8
 mtz_3_1:
  + 1 U3 - 1 U1 + 9 X_3_1
  <= 8
 mtz_3_2:
  + 1 U3 - 1 U2 + 9 X_3_2
  <= 8
 mtz_3_4:
  + 1 U3 - 1 U4 + 9 X_3_4
  <= 8
 mtz_3_5:
  + 1 U3 - 1 U5 + 9 X_3_5
  <= 8
 mtz_3_6:
  + 1 U3 - 1 U6 + 9 X_3_6
  <= 8
 mtz_3_7:
  + 1 U3 - 1 U7 + 9 X_3_7
  <= 8
 mtz_3_8:
  + 1 U3 - 1 U8 + 9 X_3_8
  <= 8
 mtz_3_9:
  + 1 U3 - 1 U9 + 9 X_3_9
  <= 8
 mtz_4_1:
  + 1 U4 - 1 U1 + 9 X_4_1
  <= 8
 mtz_4_2:
  + 1 U4 - 1 U2 + 9 X_4_2
  <= 8
 mtz_4_3:
  + 1 U4 - 1 U3 + 9 X_4_3
  <= 8
 mtz_4_5:
  + 1 U4 - 1 U5 + 9 X_4_5
  <= 8
 mtz_4_6:
  + 1 U4 - 1 U6 + 9 X_4_6
  <= 8
 mtz_4_7:
  + 1 U4 - 1 U7 + 9 X_4_7
  <= 8
 mtz_4_8:
  + 1 U4 - 1 U8 + 9 X_4_8
  <= 8
 mtz_4_9:
  + 1 U4 - 1 U9 + 9 X_4_9
  <= 8
 mtz_5_1:
  + 1 U5 - 1 U1 + 9 X_5_1
  <= 8
 mtz_5_2:
  + 1 U5 - 1 U2 + 9 X_5_2
  <= 8
 mtz_5_3:
  + 1 U5 - 1 U3 + 9 X_5_3
  <= 8
 mtz_5_4:
  + 1 U5 - 1 U4 + 9 X_5_4
  <= 8
 mtz_5_6:
  + 1 U5 - 1 U6 + 9 X_5_6
  <= 8
 mtz_5_7:
  + 1 U5 - 1 U7 + 9 X_5_7
  <= 8
 mtz_5_8:
  + 1 U5 - 1 U8 + 9 X_5_8
  <= 8
 mtz_5_9:
  + 1 U5 - 1 U9 + 9 X_5_9
  <= 8
 mtz_6_1:
  + 1 U6 - 1 U1 + 9 X_6_1
  <= 8
 mtz_6_2:
  + 1 U6 - 1 U2 + 9 X_6_2
  <= 8
 mtz_6_3:
  + 1 U6 - 1 U3 + 9 X_6_3
  <= 8
 mtz_6_4:
  + 1 U6 - 1 U4 + 9 X_6_4
  <= 8
 mtz_6_5:
  + 1 U6 - 1 U5 + 9 X_6_5
  <= 8
 mtz_6_7:
  + 1 U6 - 1 U7 + 9 X_6_7
  <= 8
 mtz_6_8:
  + 1 U6 - 1 U8 + 9 X_6_8
  <= 8
 mtz_6_9:
  + 1 U6 - 1 U9 + 9 X_6_9
  <= 8
 mtz_7_1:
  + 1 U7 - 1 U1 + 9 X_7_1
  <= 8
 mtz_7_2:
  + 1 U7 - 1 U2 + 9 X_7_2
  <= 8
 mtz_7_3:
  + 1 U7 - 1 U3 + 9 X_7_3
  <= 8
 mtz_7_4:
  + 1 U7 - 1 U4 + 9 X_7_4
  <= 8
 mtz_7_5:
  + 1 U7 - 1 U5 + 9 X_7_5
  <= 8
 mtz_7_6:
  + 1 U7 - 1 U6 + 9 X_7_6
  <= 8
 mtz_7_8:
  + 1 U7 - 1 U8 + 9 X_7_8
  <= 8
 mtz_7_9:
  + 1 U7 - 1 U9 + 9 X_7_9
  <= 8
 mtz_8_1:
  + 1 U8 - 1 U1 + 9 X_8_1
  <= 8
 mtz_8_2:
  + 1 U8 - 1 U2 + 9 X_8_2
  <= 8
 mtz_8_3:
  + 1 U8 - 1 U3 + 9 X_8_3
  <= 8
 mtz_8_4:
  + 1 U8 - 1 U4 + 9 X_8_4
  <= 8
 mtz_8_5:
  + 1 U8 - 1 U5 + 9 X_8_5
  <= 8
 mtz_8_6:
  + 1 U8 - 1 U6 + 9 X_8_6
  <= 8
 mtz_8_7:
  + 1 U8 - 1 U7 + 9 X_8_7
  <= 8
 mtz_8_9:
  + 1 U8 - 1 U9 + 9 X_8_9
  <= 8
 mtz_9_1:
  + 1 U9 - 1 U1 + 9 X_9_1
  <= 8
 mtz_9_2:
  + 1 U9 - 1 U2 + 9 X_9_2
  <= 8
 mtz_9_3:
  + 1 U9 - 1 U3 + 9 X_9_3
  <= 8
 mtz_9_4:
  + 1 U9 - 1 U4 + 9 X_9_4
  <= 8
 mtz_9_5:
  + 1 U9 - 1 U5 + 9 X_9_5
  <= 8
 mtz_9_6:
  + 1 U9 - 1 U6 + 9 X_9_6
  <= 8
 mtz_9_7:
  + 1 U9 - 1 U7 + 9 X_9_7
  <= 8
 mtz_9_8:
  + 1 U9 - 1 U8 + 9 X_9_8
  <= 8
 obj1:
  + 75 X_0_1 + 647 X_0_2 + 84 X_0_3 + 881 X_0_4 + 473 X_0_5 + 427 X_0_6 + 563 X_0_7 + 326 X_0_8
  + 349 X_0_9 + 75 X_1_0 + 588 X_1_2 + 14 X_1_3 + 810 X_1_4 + 398 X_1_5 + 353 X_1_6 + 580 X_1_7
  + 275 X_1_8 + 359 X_1_9 + 647 X_2_0 + 588 X_2_1 + 589 X_2_3 + 330 X_2_4 + 382 X_2_5 + 464 X_2_6
  + 644 X_2_7 + 324 X_2_8 + 535 X_2_9 + 84 X_3_0 + 14 X_3_1 + 589 X_3_2 + 806 X_3_4 + 390 X_3_5
  + 342 X_3_6 + 594 X_3_7 + 280 X_3_8 + 373 X_3_9 + 881 X_4_0 + 810 X_4_1 + 330 X_4_2 + 806 X_4_3
  + 455 X_4_5 + 543 X_4_6 + 975 X_4_7 + 597 X_4_8 + 851 X_4_9 + 473 X_5_0 + 398 X_5_1 + 382 X_5_2
  + 390 X_5_3 + 455 X_5_4 + 91 X_5_6 + 795 X_5_7 + 317 X_5_8 + 596 X_5_9 + 427 X_6_0 + 353 X_6_1
  + 464 X_6_2 + 342 X_6_3 + 543 X_6_4 + 91 X_6_5 + 813 X_6_7 + 342 X_6_8 + 603 X_6_9 + 563 X_7_0
  + 580 X_7_1 + 644 X_7_2 + 594 X_7_3 + 975 X_7_4 + 795 X_7_5 + 813 X_7_6 + 477 X_7_8 + 222 X_7_9
  + 326 X_8_0 + 275 X_8_1 + 324 X_8_2 + 280 X_8_3 + 597 X_8_4 + 317 X_8_5 + 342 X_8_6 + 477 X_8_7
  + 284 X_8_9 + 349 X_9_0 + 359 X_9_1 + 535 X_9_2 + 373 X_9_3 + 851 X_9_4 + 596 X_9_5 + 603 X_9_6
  + 222 X_9_7 + 284 X_9_8
  <= 1
 obj2:
  + 540 X_0_1 + 563 X_0_2 + 344 X_0_3 + 337 X_0_4 + 175 X_0_5 + 334 X_0_6 + 851 X_0_7 + 689 X_0_8
  + 437 X_0_9 + 540 X_1_0 + 918 X_1_2 + 233 X_1_3 + 854 X_1_4 + 371 X_1_5 + 863 X_1_6 + 659 X_1_7
  + 885 X_1_8 + 855 X_1_9 + 563 X_2_0 + 918 X_2_1 + 689 X_2_3 + 375 X_2_4 + 678 X_2_5 + 423 X_2_6
  + 766 X_2_7 + 263 X_2_8 + 148 X_2_9 + 344 X_3_0 + 233 X_3_1 + 689 X_3_2 + 631 X_3_4 + 208 X_3_5
  + 645 X_3_6 + 597 X_3_7 + 682 X_3_8 + 622 X_3_9 + 337 X_4_0 + 854 X_4_1 + 375 X_4_2 + 631 X_4_3
  + 508 X_4_5 + 48 X_4_6 + 978 X_4_7 + 606 X_4_8 + 229 X_4_9 + 175 X_5_0 + 371 X_5_1 + 678 X_5_2
  + 208 X_5_3 + 508 X_5_4 + 508 X_5_6 + 786 X_5_7 + 749 X_5_8 + 573 X_5_9 + 334 X_6_0 + 863 X_6_1
  + 423 X_6_2 + 645 X_6_3 + 48 X_6_4 + 508 X_6_5 + 1016 X_6_7 + 654 X_6_8 + 277 X_6_9 + 851 X_7_0
  + 659 X_7_1 + 766 X_7_2 + 597 X_7_3 + 978 X_7_4 + 786 X_7_5 + 1016 X_7_6 + 553 X_7_8 + 819 X_7_9
  + 689 X_8_0 + 885 X_8_1 + 263 X_8_2 + 682 X_8_3 + 606 X_8_4 + 749 X_8_5 + 654 X_8_6 + 553 X_8_7
  + 382 X_8_9 + 437 X_9_0 + 855 X_9_1 + 148 X_9_2 + 622 X_9_3 + 229 X_9_4 + 573 X_9_5 + 277 X_9_6
  + 819 X_9_7 + 382 X_9_8
  <= 2
 obj3:
  + 213 X_0_1 + 414 X_0_2 + 702 X_0_3 + 407 X_0_4 + 548 X_0_5 + 579 X_0_6 + 611 X_0_7 + 270 X_0_8
  + 199 X_0_9 + 213 X_1_0 + 203 X_1_2 + 849 X_1_3 + 279 X_1_4 + 476 X_1_5 + 492 X_1_6 + 742 X_1_7
  + 258 X_1_8 + 27 X_1_9 + 414 X_2_0 + 203 X_2_1 + 1029 X_2_3 + 313 X_2_4 + 526 X_2_5 + 523 X_2_6
  + 916 X_2_7 + 356 X_2_8 + 215 X_2_9 + 702 X_3_0 + 849 X_3_1 + 1029 X_3_2 + 798 X_3_4 + 710 X_3_5
  + 756 X_3_6 + 121 X_3_7 + 969 X_3_8 + 853 X_3_9 + 407 X_4_0 + 279 X_4_1 + 313 X_4_2 + 798 X_4_3
  + 214 X_4_5 + 219 X_4_6 + 677 X_4_7 + 537 X_4_8 + 306 X_4_9 + 548 X_5_0 + 476 X_5_1 + 526 X_5_2
  + 710 X_5_3 + 214 X_5_4 + 47 X_5_6 + 590 X_5_7 + 730 X_5_8 + 501 X_5_9 + 579 X_6_0 + 492 X_6_1
  + 523 X_6_2 + 756 X_6_3 + 219 X_6_4 + 47 X_6_5 + 636 X_6_7 + 749 X_6_8 + 518 X_6_9 + 611 X_7_0
  + 742 X_7_1 + 916 X_7_2 + 121 X_7_3 + 677 X_7_4 + 590 X_7_5 + 636 X_7_6 + 881 X_7_8 + 748 X_7_9
  + 270 X_8_0 + 258 X_8_1 + 356 X_8_2 + 969 X_8_3 + 537 X_8_4 + 730 X_8_5 + 749 X_8_6 + 881 X_8_7
  + 231 X_8_9 + 199 X_9_0 + 27 X_9_1 + 215 X_9_2 + 853 X_9_3 + 306 X_9_4 + 501 X_9_5 + 518 X_9_6
  + 748 X_9_7 + 231 X_9_8
  <= 3
 obj4:
  + 47 X_0_1 + 705 X_0_2 + 79 X_0_3 + 790 X_0_4 + 532 X_0_5 + 504 X_0_6 + 495 X_0_7 + 124 X_0_8
  + 744 X_0_9 + 47 X_1_0 + 696 X_1_2 + 124 X_1_3 + 808 X_1_4 + 556 X_1_5 + 479 X_1_6 + 490 X_1_7
  + 93 X_1_8 + 761 X_1_9 + 705 X_2_0 + 696 X_2_1 + 752 X_2_3 + 439 X_2_4 + 474 X_2_5 + 305 X_2_6
  + 215 X_2_7 + 610 X_2_8 + 402 X_2_9 + 79 X_3_0 + 124 X_3_1 + 752 X_3_2 + 794 X_3_4 + 526 X_3_5
  + 572 X_3_6 + 538 X_3_7 + 201 X_3_8 + 751 X_3_9 + 790 X_4_0 + 808 X_4_1 + 439 X_4_2 + 794 X_4_3
  + 276 X_4_5 + 656 X_4_6 + 431 X_4_7 + 758 X_4_8 + 49 X_4_9 + 532 X_5_0 + 556 X_5_1 + 474 X_5_2
  + 526 X_5_3 + 276 X_5_4 + 553 X_5_6 + 334 X_5_7 + 523 X_5_8 + 240 X_5_9 + 504 X_6_0 + 479 X_6_1
  + 305 X_6_2 + 572 X_6_3 + 656 X_6_4 + 553 X_6_5 + 230 X_6_7 + 385 X_6_8 + 609 X_6_9 + 495 X_7_0
  + 490 X_7_1 + 215 X_7_2 + 538 X_7_3 + 431 X_7_4 + 334 X_7_5 + 230 X_7_6 + 410 X_7_8 + 382 X_7_9
  + 124 X_8_0 + 93 X_8_1 + 610 X_8_2 + 201 X_8_3 + 758 X_8_4 + 523 X_8_5 + 385 X_8_6 + 410 X_8_7
  + 710 X_8_9 + 744 X_9_0 + 761 X_9_1 + 402 X_9_2 + 751 X_9_3 + 49 X_9_4 + 240 X_9_5 + 609 X_9_6
  + 382 X_9_7 + 710 X_9_8
  <= 4
Bounds
 1 <= U1 <= 9
 1 <= U2 <= 9
 1 <= U3 <= 9
 1 <= U4 <= 9
 1 <= U5 <= 9
 1 <= U6 <= 9
 1 <= U7 <= 9
 1 <= U8 <= 9
 1 <= U9 <= 9
Binary
 X_0_1
 X_0_2
 X_0_3
 X_0_4
 X_0_5
 X_0_6
 X_0_7
 X_0_8
 X_0_9
 X_1_0
 X_1_2
 X_1_3
 X_1_4
 X_1_5
 X_1_6
 X_1_7
 X_1_8
 X_1_9
 X_2_0
 X_2_1
 X_2_3
 X_2_4
 X_2_5
 X_2_6
 X_2_7
 X_2_8
 X_2_9
 X_3_0
 X_3_1
 X_3_2
 X_3_4
 X_3_5
 X_3_6
 X_3_7
 X_3_8
 X_3_9
 X_4_0
 X_4_1
 X_4_2
 X_4_3
 X_4_5
 X_4_6
 X_4_7
 X_4_8
 X_4_9
 X_5_0
 X_5_1
 X_5_2
 X_5_3
 X_5_4
 X_5_6
 X_5_7
 X_5_8
 X_5_9
 X_6_0
 X_6_1
 X_6_2
 X_6_3
 X_6_4
 X_6_5
 X_6_7
 X_6_8
 X_6_9
 X_7_0
 X_7_1
 X_7_2
 X_7_3
 X_7_4
 X_7_5
 X_7_6
 X_7_8
 X_7_9
 X_8_0
 X_8_1
 X_8_2
 X_8_3
 X_8_4
 X_8_5
 X_8_6
 X_8_7
 X_8_9
 X_9_0
 X_9_1
 X_9_2
 X_9_3
 X_9_4
 X_9_5
 X_9_6
 X_9_7
 X_9_8
End
